146
100
35
57
37
10
21
18
23
20
25
65
6
60
40
25
73
43
41
64
31
51
35
16
29
8
11
13
21
38
7
55
17
59
18
4
67
28
7
47
18
28
26
11
18
18
47
1
24
39
62
12
6
20
43
21
14
51
45
25
36
4
12
9
59
28
23
45
1
1
42
1
16
52
5
45
34
16
26
20
7
20
60
58
75
47
8
53
51
10
40
26
1
14
48
6
37
13
21
50
6
12
21
62
53
67
69
24
16
43
30
52
35
42
22
40
5
2
1
34
58
1
4
42
57
65
68
10
4
3
15
66
58
6
4
65
15
65
58
30
75
21
35
68
11
27
11
48
